c FILE /home/rafael/Documents/HappySet/MIHS/inputs/happygen/output/graph_d_regular_k20_p0.4_v100_20241127_084134.txt
c SOURCE This is a d-regular graph formed for the happy graph colouring problem.
c DESCRIPTION It was generated using the problem generator of Rhyd Lewis
c
c GRAPH STATS
c Seed                             = -1446678740
c Number of Nodes                  = 100
c Number of colours k              = 20
c Number of pre-assignments        = 40
c Degree of all vertices           = 6
c Density                          = 0.0606061
c 
c The degrees of nodes 1 to 100, respectively, are as follows 
c [6, 6, 6, 6, 6, 6, 6, 6, 6, 6, 6, 6, 6, 6, 6, 6, 6, 6, 6, 6, 6, 6, 6, 6, 6, 6, 
c  6, 6, 6, 6, 6, 6, 6, 6, 6, 6, 6, 6, 6, 6, 6, 6, 6, 6, 6, 6, 6, 6, 6, 6, 6, 
c  6, 6, 6, 6, 6, 6, 6, 6, 6, 6, 6, 6, 6, 6, 6, 6, 6, 6, 6, 6, 6, 6, 6, 6, 6, 
c  6, 6, 6, 6, 6, 6, 6, 6, 6, 6, 6, 6, 6, 6, 6, 6, 6, 6, 6, 6, 6, 6, 6, 6] 
c  
p edge 100 300 20
e 1 13
e 1 15
e 1 30
e 1 39
e 1 55
e 1 71
e 2 11
e 2 16
e 2 17
e 2 29
e 2 43
e 2 59
e 3 27
e 3 43
e 3 62
e 3 78
e 3 96
e 3 100
e 4 5
e 4 9
e 4 18
e 4 25
e 4 57
e 4 89
e 5 54
e 5 67
e 5 73
e 5 78
e 5 88
e 6 19
e 6 44
e 6 54
e 6 69
e 6 79
e 6 92
e 7 8
e 7 20
e 7 55
e 7 61
e 7 76
e 7 89
e 8 13
e 8 23
e 8 49
e 8 66
e 8 90
e 9 10
e 9 12
e 9 37
e 9 40
e 9 51
e 10 20
e 10 26
e 10 90
e 10 92
e 10 94
e 11 23
e 11 40
e 11 47
e 11 80
e 11 97
e 12 31
e 12 44
e 12 48
e 12 56
e 12 75
e 13 22
e 13 24
e 13 84
e 13 93
e 14 17
e 14 28
e 14 34
e 14 45
e 14 79
e 14 80
e 15 26
e 15 50
e 15 56
e 15 83
e 15 95
e 16 38
e 16 52
e 16 67
e 16 81
e 16 96
e 17 23
e 17 30
e 17 40
e 17 85
e 18 19
e 18 34
e 18 38
e 18 72
e 18 96
e 19 60
e 19 71
e 19 74
e 19 98
e 20 35
e 20 53
e 20 76
e 20 84
e 21 41
e 21 64
e 21 68
e 21 75
e 21 89
e 21 92
e 22 32
e 22 37
e 22 53
e 22 64
e 22 67
e 23 35
e 23 78
e 23 81
e 24 61
e 24 69
e 24 77
e 24 87
e 24 97
e 25 41
e 25 63
e 25 65
e 25 82
e 25 97
e 26 62
e 26 63
e 26 72
e 26 74
e 27 43
e 27 48
e 27 58
e 27 66
e 27 94
e 28 42
e 28 43
e 28 57
e 28 64
e 28 95
e 29 56
e 29 62
e 29 69
e 29 72
e 29 91
e 30 67
e 30 69
e 30 72
e 30 81
e 31 33
e 31 36
e 31 65
e 31 66
e 31 86
e 32 36
e 32 77
e 32 80
e 32 86
e 32 99
e 33 36
e 33 39
e 33 44
e 33 75
e 33 94
e 34 42
e 34 50
e 34 63
e 34 84
e 35 39
e 35 51
e 35 70
e 35 81
e 36 41
e 36 61
e 36 71
e 37 39
e 37 46
e 37 63
e 37 99
e 38 41
e 38 45
e 38 84
e 38 93
e 39 46
e 39 50
e 40 53
e 40 64
e 40 83
e 41 46
e 41 71
e 42 52
e 42 76
e 42 87
e 42 92
e 43 53
e 43 82
e 44 57
e 44 58
e 44 98
e 45 52
e 45 62
e 45 71
e 45 90
e 46 51
e 46 58
e 46 75
e 47 52
e 47 56
e 47 76
e 47 95
e 47 97
e 48 53
e 48 57
e 48 68
e 48 73
e 49 50
e 49 58
e 49 78
e 49 82
e 49 94
e 50 57
e 50 91
e 51 65
e 51 83
e 51 84
e 52 62
e 52 85
e 53 54
e 54 60
e 54 78
e 54 80
e 55 79
e 55 82
e 55 83
e 55 85
e 56 69
e 56 77
e 57 95
e 58 63
e 58 100
e 59 60
e 59 76
e 59 79
e 59 92
e 59 98
e 60 64
e 60 70
e 60 90
e 61 76
e 61 80
e 61 88
e 62 87
e 63 79
e 64 75
e 65 74
e 65 86
e 65 100
e 66 73
e 66 86
e 66 93
e 67 68
e 67 83
e 68 73
e 68 83
e 68 93
e 69 70
e 70 73
e 70 88
e 70 96
e 71 81
e 72 82
e 72 99
e 73 75
e 74 88
e 74 98
e 74 99
e 77 84
e 77 98
e 77 99
e 78 95
e 79 89
e 80 91
e 81 90
e 82 90
e 85 89
e 85 91
e 85 100
e 86 92
e 86 95
e 87 94
e 87 96
e 87 100
e 88 89
e 88 96
e 91 93
e 91 97
e 93 97
e 94 100
e 98 99
n 3 2
n 6 11
n 12 14
n 13 15
n 14 13
n 18 13
n 20 12
n 21 4
n 22 15
n 23 12
n 26 15
n 29 5
n 30 14
n 33 20
n 34 13
n 38 13
n 40 8
n 43 2
n 46 17
n 48 14
n 49 1
n 52 16
n 54 11
n 55 8
n 57 14
n 59 15
n 61 3
n 65 10
n 66 10
n 70 19
n 71 18
n 77 15
n 83 8
n 86 10
n 87 7
n 89 4
n 90 9
n 97 6
n 98 15
n 99 15
